30
1 0 15
2 0 17
2 1 18
3 0 17
3 1 5
3 2 10
4 0 7
4 1 8
4 2 19
4 3 5
5 0 20
5 1 11
5 2 20
5 3 6
5 4 11
6 0 14
6 1 16
6 2 14
6 3 4
6 4 9
6 5 6
7 0 15
7 1 1
7 2 12
7 3 19
7 4 7
7 5 6
7 6 18
8 0 15
8 1 7
8 2 14
8 3 12
8 4 6
8 5 13
8 6 1
8 7 13
9 0 3
9 1 10
9 2 19
9 3 7
9 4 9
9 5 19
9 6 14
9 7 4
9 8 9
10 0 15
10 1 3
10 2 12
10 3 18
10 4 11
10 5 8
10 6 20
10 7 6
10 8 19
10 9 17
11 0 3
11 1 4
11 2 18
11 3 8
11 4 11
11 5 6
11 6 7
11 7 1
11 8 13
11 9 3
11 10 8
12 0 13
12 1 3
12 2 19
12 3 4
12 4 2
12 5 6
12 6 3
12 7 20
12 8 19
12 9 5
12 10 11
12 11 18
13 0 15
13 1 19
13 2 3
13 3 15
13 4 20
13 5 18
13 6 9
13 7 12
13 8 16
13 9 19
13 10 2
13 11 20
13 12 16
14 0 16
14 1 12
14 2 7
14 3 13
14 4 16
14 5 15
14 6 7
14 7 17
14 8 16
14 9 5
14 10 19
14 11 20
14 12 7
14 13 4
15 0 15
15 1 13
15 2 16
15 3 15
15 4 8
15 5 17
15 6 12
15 7 15
15 8 19
15 9 9
15 10 20
15 11 19
15 12 9
15 13 2
15 14 10
16 0 2
16 1 20
16 2 14
16 3 14
16 4 11
16 5 5
16 6 6
16 7 20
16 8 10
16 9 10
16 10 1
16 11 6
16 12 16
16 13 7
16 14 17
16 15 3
17 0 17
17 1 14
17 2 3
17 3 2
17 4 5
17 5 20
17 6 10
17 7 10
17 8 14
17 9 7
17 10 17
17 11 5
17 12 4
17 13 9
17 14 6
17 15 12
17 16 10
18 0 8
18 1 3
18 2 1
18 3 13
18 4 7
18 5 17
18 6 18
18 7 8
18 8 5
18 9 12
18 10 20
18 11 10
18 12 5
18 13 19
18 14 6
18 15 15
18 16 7
18 17 15
19 0 18
19 1 16
19 2 18
19 3 12
19 4 12
19 5 9
19 6 18
19 7 8
19 8 15
19 9 6
19 10 18
19 11 6
19 12 7
19 13 17
19 14 19
19 15 8
19 16 15
19 17 12
19 18 5
20 0 1
20 1 13
20 2 17
20 3 2
20 4 8
20 5 20
20 6 14
20 7 19
20 8 18
20 9 8
20 10 16
20 11 13
20 12 10
20 13 6
20 14 19
20 15 15
20 16 19
20 17 6
20 18 14
20 19 7
21 0 6
21 1 16
21 2 19
21 3 14
21 4 17
21 5 13
21 6 16
21 7 17
21 8 20
21 9 12
21 10 18
21 11 3
21 12 2
21 13 11
21 14 2
21 15 5
21 16 10
21 17 5
21 18 4
21 19 9
21 20 11
22 0 4
22 1 16
22 2 4
22 3 16
22 4 5
22 5 3
22 6 17
22 7 6
22 8 7
22 9 15
22 10 12
22 11 4
22 12 6
22 13 17
22 14 8
22 15 20
22 16 18
22 17 14
22 18 19
22 19 20
22 20 16
22 21 14
23 0 1
23 1 10
23 2 14
23 3 1
23 4 6
23 5 19
23 6 16
23 7 13
23 8 9
23 9 13
23 10 16
23 11 2
23 12 1
23 13 4
23 14 9
23 15 1
23 16 8
23 17 20
23 18 4
23 19 8
23 20 16
23 21 1
23 22 15
24 0 11
24 1 10
24 2 4
24 3 11
24 4 4
24 5 15
24 6 17
24 7 18
24 8 5
24 9 16
24 10 8
24 11 12
24 12 17
24 13 19
24 14 3
24 15 18
24 16 6
24 17 14
24 18 6
24 19 14
24 20 3
24 21 5
24 22 17
24 23 13
25 0 9
25 1 9
25 2 6
25 3 19
25 4 13
25 5 9
25 6 12
25 7 9
25 8 18
25 9 7
25 10 11
25 11 2
25 12 1
25 13 15
25 14 2
25 15 3
25 16 13
25 17 6
25 18 11
25 19 17
25 20 12
25 21 8
25 22 15
25 23 4
25 24 13
26 0 17
26 1 16
26 2 2
26 3 5
26 4 14
26 5 4
26 6 14
26 7 14
26 8 7
26 9 9
26 10 15
26 11 2
26 12 9
26 13 1
26 14 13
26 15 20
26 16 14
26 17 14
26 18 6
26 19 12
26 20 9
26 21 19
26 22 7
26 23 10
26 24 14
26 25 15
27 0 16
27 1 19
27 2 10
27 3 7
27 4 15
27 5 3
27 6 1
27 7 5
27 8 20
27 9 5
27 10 13
27 11 15
27 12 17
27 13 10
27 14 11
27 15 3
27 16 15
27 17 17
27 18 11
27 19 17
27 20 12
27 21 11
27 22 8
27 23 7
27 24 1
27 25 10
27 26 13
28 0 16
28 1 6
28 2 11
28 3 9
28 4 13
28 5 5
28 6 16
28 7 18
28 8 17
28 9 8
28 10 16
28 11 12
28 12 5
28 13 7
28 14 2
28 15 9
28 16 14
28 17 14
28 18 13
28 19 1
28 20 20
28 21 7
28 22 20
28 23 6
28 24 4
28 25 18
28 26 13
28 27 19
29 0 20
29 1 2
29 2 9
29 3 9
29 4 5
29 5 16
29 6 8
29 7 13
29 8 6
29 9 20
29 10 18
29 11 20
29 12 10
29 13 16
29 14 15
29 15 12
29 16 7
29 17 3
29 18 10
29 19 19
29 20 10
29 21 10
29 22 8
29 23 10
29 24 14
29 25 6
29 26 8
29 27 3
29 28 18
